100
3623
63 182
3 11
22 25
99 17
54 23
25 92
87 49
81 26
18 129
30 130
89 137
47 21
33 100
56 83
24 162
41 20
89 26
25 83
44 21
58 145
28 112
45 135
23 81
50 75
40 46
90 148
10 50
71 170
2 159
25 80
19 23
17 57
16 103
57 177
81 188
35 86
32 37
74 104
74 62
39 68
92 67
74 34
27 19
38 130
50 63
33 98
14 168
62 77
44 126
92 81
65 187
91 140
5 119
52 161
88 179
85 62
78 151
8 75
11 53
59 27
41 59
100 138
94 150
96 131
60 188
46 153
43 156
54 170
6 119
71 93
100 74
89 107
33 70
90 51
46 173
33 44
29 186
74 85
57 63
70 57
36 174
99 179
17 100
52 66
50 84
87 109
72 78
95 12
31 66
54 180
46 25
87 98
76 34
100 172
9 40
71 50
18 45
38 52
7 24
15 93
